<?xml version="1.0" encoding="UTF-8"?><osil xmlns="os.optimizationservices.org" xmlns:xsi="http://www.w3.org/2001/XMLSchema-instance" xsi:schemaLocation="os.optimizationservices.org http://www.optimizationservices.org/schemas/2.0/OSiL.xsd"><instanceHeader><name>ex1225</name></instanceHeader><instanceData><variables numberOfVariables="8"><var name="x1" lb="1" ub="5"/><var name="x2" lb="1" ub="5"/><var name="b3" type="B" ub="1"/><var name="b4" type="B" ub="1"/><var name="b5" type="B" ub="1"/><var name="b6" type="B" ub="1"/><var name="b7" type="B" ub="1"/><var name="b8" type="B" ub="1"/></variables><objectives><obj maxOrMin="min" name="defObj_objvar" numberOfObjCoef="2"><coef idx="0">7</coef><coef idx="1">10</coef></obj></objectives><constraints numberOfConstraints="10"><con name="e2" ub="-24"/><con name="e3" ub="-5"/><con name="e4" ub="1"/><con name="e5" ub="11"/><con name="e6" lb="1" ub="1"/><con name="e7" lb="1" ub="1"/><con name="e8" ub="1"/><con name="e9" ub="1"/><con name="e10" ub="1"/><con name="e11" ub="1"/></constraints><linearConstraintCoefficients numberOfValues="22"><start><el mult="2">0</el><el mult="3" incr="2">2</el><el>10</el><el mult="5" incr="2">14</el></start><colIdx><el>0</el><el>1</el><el>0</el><el>1</el><el>0</el><el>1</el><el>0</el><el mult="3" incr="1">2</el><el>1</el><el mult="3" incr="1">5</el><el>2</el><el>4</el><el>5</el><el>7</el><el>3</el><el>4</el><el>6</el><el>7</el></colIdx><value><el>-1</el><el>-2</el><el>-3</el><el>1</el><el>4</el><el>-3</el><el>1</el><el>-1</el><el>-2</el><el>-4</el><el>1</el><el>-1</el><el>-2</el><el>-4</el><el mult="8">1</el></value></linearConstraintCoefficients><nonlinearExpressions numberOfNonlinearExpressions="1"><nl idx="0"><sum><product><power><variable idx="0"/><number value="1.2"/></power><power><variable idx="1"/><number value="1.7"/></power></product><variable idx="0" coef="-7"/><variable idx="1" coef="-9"/></sum></nl></nonlinearExpressions></instanceData></osil>